Problem:    
Rows:       77
Columns:    175 (175 integer, 175 binary)
Non-zeros:  1203
Status:     INTEGER OPTIMAL
Objective:  score = 33962 (MAXimum)

   No.   Row name        Activity     Lower bound   Upper bound
------ ------------    ------------- ------------- -------------
     1 index_0                    24             0               
     2 index_1                     0             0               
     3 index_2                     1             0               
     4 index_3                     1             0               
     5 index_4                     4             0               
     6 index_5                     2             0               
     7 index_6                     2             0               
     8 index_7                     1             0               
     9 index_8                     2             0               
    10 index_9                     1             0               
    11 index_10                    2             0               
    12 index_11                    1             0               
    13 index_12                    4             0               
    14 index_13                    6             0               
    15 index_14                    2             0               
    16 index_15                    5             0               
    17 index_16                    1             0               
    18 index_17                    0             0               
    19 index_18                    1             0               
    20 index_19                    1             0               
    21 index_20                    4             0               
    22 index_21                    0             0               
    23 index_22                    0             0               
    24 index_23                   10             0               
    25 index_24                    0             0               
    26 index_25                    4             0               
    27 index_26                    5             0               
    28 index_27                    4             0               
    29 index_28                    1             0               
    30 index_29                    2             0               
    31 index_30                    0             0               
    32 index_31                    2             0               
    33 index_32                    0             0               
    34 index_33                    2             0               
    35 index_34                    0             0               
    36 index_35                    4             0               
    37 index_36                    1             0               
    38 index_37                    1             0               
    39 index_38                    1             0               
    40 index_39                    1             0               
    41 index_40                    3             0               
    42 index_41                    4             0               
    43 index_42                    2             0               
    44 index_43                    2             0               
    45 index_44                    4             0               
    46 index_45                    6             0               
    47 index_46                    1             0               
    48 index_47                    1             0               
    49 index_48                    1             0               
    50 index_49                    2             0               
    51 index_50                    2             0               
    52 index_51                    0             0               
    53 index_52                    7             0               
    54 index_53                    1             0               
    55 index_54                    9             0               
    56 index_55                    2             0               
    57 index_56                    4             0               
    58 index_57                    3             0               
    59 index_58                    4             0               
    60 index_59                    6             0               
    61 index_60                   13             0               
    62 index_61                    1             0               
    63 index_62                    2             0               
    64 index_63                    6             0               
    65 index_64                    6             0               
    66 index_65                    5             0               
    67 index_66                    4             0               
    68 index_67                    1             0               
    69 index_68                    1             0               
    70 index_69                    0             0               
    71 index_70                    3             0               
    72 index_71                   13             0               
    73 index_72                    3             0               
    74 index_73                   23             0               
    75 index_74                    2             0               
    76 length_max               4257                        5340 
    77 length_min               4257          4005               

   No. Column name       Activity     Lower bound   Upper bound
------ ------------    ------------- ------------- -------------
     1 c0           *              1             0             1 
     2 c1           *              1             0             1 
     3 c2           *              1             0             1 
     4 c3           *              1             0             1 
     5 c4           *              1             0             1 
     6 c5           *              1             0             1 
     7 c6           *              1             0             1 
     8 c7           *              1             0             1 
     9 c8           *              1             0             1 
    10 c9           *              1             0             1 
    11 c10          *              1             0             1 
    12 c11          *              1             0             1 
    13 c12          *              1             0             1 
    14 c13          *              1             0             1 
    15 c14          *              1             0             1 
    16 c15          *              1             0             1 
    17 c16          *              1             0             1 
    18 c17          *              1             0             1 
    19 c18          *              1             0             1 
    20 c19          *              1             0             1 
    21 c20          *              1             0             1 
    22 c21          *              1             0             1 
    23 c22          *              1             0             1 
    24 c23          *              1             0             1 
    25 c24          *              1             0             1 
    26 c25          *              1             0             1 
    27 c26          *              1             0             1 
    28 c27          *              1             0             1 
    29 c28          *              1             0             1 
    30 c29          *              1             0             1 
    31 c30          *              1             0             1 
    32 c31          *              1             0             1 
    33 c32          *              1             0             1 
    34 c33          *              1             0             1 
    35 c34          *              1             0             1 
    36 c35          *              1             0             1 
    37 c36          *              1             0             1 
    38 c37          *              1             0             1 
    39 c38          *              1             0             1 
    40 c39          *              1             0             1 
    41 c40          *              1             0             1 
    42 c41          *              1             0             1 
    43 c42          *              1             0             1 
    44 c43          *              1             0             1 
    45 c44          *              1             0             1 
    46 c45          *              1             0             1 
    47 c46          *              1             0             1 
    48 c47          *              1             0             1 
    49 c48          *              1             0             1 
    50 c49          *              1             0             1 
    51 c50          *              1             0             1 
    52 c51          *              1             0             1 
    53 c52          *              1             0             1 
    54 c53          *              1             0             1 
    55 c54          *              1             0             1 
    56 c55          *              1             0             1 
    57 c56          *              1             0             1 
    58 c57          *              1             0             1 
    59 c58          *              1             0             1 
    60 c59          *              1             0             1 
    61 c60          *              1             0             1 
    62 c61          *              1             0             1 
    63 c62          *              1             0             1 
    64 c63          *              1             0             1 
    65 c64          *              1             0             1 
    66 c65          *              1             0             1 
    67 c66          *              1             0             1 
    68 c67          *              1             0             1 
    69 c68          *              1             0             1 
    70 c69          *              1             0             1 
    71 c70          *              1             0             1 
    72 c71          *              1             0             1 
    73 c72          *              1             0             1 
    74 c73          *              1             0             1 
    75 c74          *              1             0             1 
    76 s0           *              0             0             1 
    77 s1           *              0             0             1 
    78 s2           *              0             0             1 
    79 s3           *              0             0             1 
    80 s4           *              0             0             1 
    81 s5           *              0             0             1 
    82 s6           *              0             0             1 
    83 s7           *              1             0             1 
    84 s8           *              0             0             1 
    85 s9           *              0             0             1 
    86 s10          *              1             0             1 
    87 s11          *              1             0             1 
    88 s12          *              0             0             1 
    89 s13          *              1             0             1 
    90 s14          *              0             0             1 
    91 s15          *              0             0             1 
    92 s16          *              0             0             1 
    93 s17          *              0             0             1 
    94 s18          *              0             0             1 
    95 s19          *              1             0             1 
    96 s20          *              0             0             1 
    97 s21          *              0             0             1 
    98 s22          *              0             0             1 
    99 s23          *              1             0             1 
   100 s24          *              0             0             1 
   101 s25          *              0             0             1 
   102 s26          *              1             0             1 
   103 s27          *              0             0             1 
   104 s28          *              1             0             1 
   105 s30          *              1             0             1 
   106 s31          *              0             0             1 
   107 s32          *              0             0             1 
   108 s33          *              1             0             1 
   109 s34          *              0             0             1 
   110 s35          *              1             0             1 
   111 s36          *              0             0             1 
   112 s37          *              0             0             1 
   113 s38          *              0             0             1 
   114 s39          *              0             0             1 
   115 s40          *              0             0             1 
   116 s41          *              0             0             1 
   117 s42          *              0             0             1 
   118 s43          *              0             0             1 
   119 s44          *              1             0             1 
   120 s45          *              0             0             1 
   121 s46          *              0             0             1 
   122 s47          *              0             0             1 
   123 s48          *              0             0             1 
   124 s49          *              0             0             1 
   125 s50          *              0             0             1 
   126 s51          *              1             0             1 
   127 s52          *              0             0             1 
   128 s53          *              0             0             1 
   129 s54          *              1             0             1 
   130 s55          *              0             0             1 
   131 s56          *              0             0             1 
   132 s57          *              1             0             1 
   133 s58          *              0             0             1 
   134 s59          *              1             0             1 
   135 s60          *              0             0             1 
   136 s61          *              0             0             1 
   137 s63          *              0             0             1 
   138 s64          *              0             0             1 
   139 s66          *              1             0             1 
   140 s67          *              0             0             1 
   141 s68          *              0             0             1 
   142 s70          *              0             0             1 
   143 s71          *              0             0             1 
   144 s72          *              1             0             1 
   145 s74          *              0             0             1 
   146 s75          *              0             0             1 
   147 s76          *              0             0             1 
   148 s78          *              0             0             1 
   149 s80          *              0             0             1 
   150 s81          *              1             0             1 
   151 s82          *              0             0             1 
   152 s83          *              0             0             1 
   153 s84          *              0             0             1 
   154 s85          *              0             0             1 
   155 s86          *              1             0             1 
   156 s87          *              0             0             1 
   157 s88          *              1             0             1 
   158 s89          *              0             0             1 
   159 s90          *              0             0             1 
   160 s91          *              1             0             1 
   161 s92          *              0             0             1 
   162 s93          *              1             0             1 
   163 s94          *              0             0             1 
   164 s95          *              1             0             1 
   165 s96          *              0             0             1 
   166 s97          *              0             0             1 
   167 s98          *              1             0             1 
   168 s99          *              0             0             1 
   169 s73          *              1             0             1 
   170 s77          *              0             0             1 
   171 s62          *              0             0             1 
   172 s69          *              0             0             1 
   173 s29          *              0             0             1 
   174 s65          *              0             0             1 
   175 s79          *              0             0             1 

Integer feasibility conditions:

KKT.PE: max.abs.err = 0.00e+00 on row 0
        max.rel.err = 0.00e+00 on row 0
        High quality

KKT.PB: max.abs.err = 0.00e+00 on row 0
        max.rel.err = 0.00e+00 on row 0
        High quality

End of output
